NAME: random-19-6514
TYPE: TSP
COMMENT: size=19 seed=6514
DIMENSION: 40
EDGE_WEIGHT_TYPE: EUC_2D
NODE_COORD_SECTION
+0 798 154
-0 798 154
+1 930 186
-1 634 258
+2 94 490
-2 954 9
+3 324 13
-3 162 392
+4 41 356
-4 201 123
+5 549 835
-5 534 878
+6 223 58
-6 333 319
+7 701 341
-7 795 856
+8 445 315
-8 622 76
+9 919 817
-9 221 781
+10 15 608
-10 573 875
+11 69 899
-11 434 760
+12 644 724
-12 690 825
+13 356 86
-13 372 512
+14 393 735
-14 886 224
+15 984 282
-15 325 870
+16 92 43
-16 927 335
+17 261 2
-17 305 440
+18 202 738
-18 460 221
+19 919 582
-19 330 867
PRECEDENCE_SECTION
+0 -0
+1 -1
+2 -2
+3 -3
+4 -4
+5 -5
+6 -6
+7 -7
+8 -8
+9 -9
+10 -10
+11 -11
+12 -12
+13 -13
+14 -14
+15 -15
+16 -16
+17 -17
+18 -18
+19 -19
EOF
